188 3885
 2 3 4 5 6 7 8 9 10 11 12 13 14 15 16 33 34 35 36 37 38 39 40 41 42 43 44 45 46 47 48 49 50 51 52 53 54 55 56 57 58 59 60 61 62 63 64 65 66 67 68 69 70 71 72 73 74 75 76 77 78 79 80 81 82 83 84 85 86 87 88 89 90 91 92 93 94 95 96 97 99 100 101 102 103 104 105 106 107 108 110 111 112 113 114 115 116 117 118 119 120 121 122 123 124 125 128 129 130 131 132 133 134 135 136 137 138 140 143 144 145 146 147 148 149 151 154 155 156 157 158 160 162 163 164 165 166 167 168 169 170 171 172 173 174 175 176 177 178 179 180 183 184 186 187 188
 3 4 5 6 7 8 9 10 11 12 13 14 15 16 33 34 35 36 37 38 39 40 41 42 43 44 45 46 47 48 49 50 51 52 53 54 55 56 57 58 59 60 61 62 63 64 65 66 67 68 69 70 71 72 73 74 75 76 77 78 79 80 81 82 83 84 85 86 87 88 89 90 91 92 93 94 95 96 97 99 100 101 102 103 104 105 106 107 108 110 111 112 113 114 115 116 117 118 119 120 121 122 123 124 125 128 129 130 131 132 133 134 135 136 137 138 140 143 144 145 146 147 148 149 151 154 155 156 157 158 160 162 163 164 165 166 167 168 169 170 171 172 173 174 175 176 177 178 179 180 183 184 186 187 188
 4 5 6 7 8 9 10 11 12 13 14 15 16 33 38 39 40 41 42 43 44 45 46 47 48 49 50 51 52 53 54 55 56 57 58 59 60 61 63 64 65 66 67 70 101 102 103 104 105 106 107 108 112 113 118 119 120 129 131 133 134 135 137 138 143 144 145 146 147 148 149 154 155 156 157 158 164 165 166 183 184
 5 6 7 8 9 10 11 12 13 14 15 16 33 46 47 48 49 50 51 52 53 54 61 63 64 65 66 67 70 101 102 103 104 105 106 107 108 112 113 118 119 120 129 131 133 134 135 137 138 143 144 145 146 147 148 149 154 155 156 157 158 164 165 166 183 184
 6 7 8 9 10 11 12 13 14 15 16 33 38 46 47 48 49 50 51 52 53 54 61 63 64 65 66 67 70 101 102 103 104 105 106 107 108 112 113 118 119 120 129 131 133 134 135 137 138 143 144 145 146 147 148 149 154 155 156 157 158 164 165 166 176 183 184
 7 8 9 10 11 12 13 14 15 16 33 38 39 46 47 48 49 50 51 52 53 54 61 63 64 65 66 67 70 101 102 103 104 105 106 107 108 112 113 118 119 120 129 131 133 134 135 137 138 143 144 145 146 147 148 149 154 155 156 157 158 164 165 166 175 176 183 184
 8 9 10 11 12 13 14 15 16 33 38 39 40 46 47 48 49 50 51 52 53 54 61 63 64 65 66 67 70 101 102 103 104 105 106 107 108 112 113 118 119 120 129 131 133 134 135 137 138 143 144 145 146 147 148 149 154 155 156 157 158 164 165 166 174 175 176 183 184
 9 10 11 12 13 14 15 16 33 38 39 40 41 46 47 48 49 50 51 52 53 54 61 63 64 65 66 67 70 101 102 103 104 105 106 107 108 112 113 118 119 120 129 131 133 134 135 137 138 143 144 145 146 147 148 149 154 155 156 157 158 164 165 166 173 174 175 176 183 184
 10 11 12 13 14 15 16 33 38 39 40 41 42 46 47 48 49 50 51 52 53 54 61 63 64 65 66 67 70 101 102 103 104 105 106 107 108 112 113 118 119 120 129 131 133 134 135 137 138 143 144 145 146 147 148 149 154 155 156 157 158 164 165 166 172 173 174 175 176 183 184
 11 12 13 14 15 16 33 38 39 40 41 42 43 46 47 48 49 50 51 52 53 54 61 63 64 65 66 67 70 101 102 103 104 105 106 107 108 112 113 118 119 120 129 131 133 134 135 137 138 143 144 145 146 147 148 149 154 155 156 157 158 164 165 166 171 172 173 174 175 176 183 184
 12 13 14 15 16 33 38 39 40 41 42 43 44 45 46 47 48 49 50 51 52 53 54 61 63 64 65 66 67 70 101 102 103 104 105 106 107 108 112 113 118 119 120 129 131 133 134 135 137 138 143 144 145 146 147 148 149 154 155 156 157 158 164 165 166 183 184
 13 14 15 16 33 38 39 40 41 42 43 44 45 46 47 48 49 50 51 52 53 54 55 56 61 63 64 65 66 67 70 101 102 103 104 105 106 107 108 112 113 118 119 120 129 131 133 134 135 137 138 143 144 145 146 147 148 149 154 155 156 157 158 164 165 166 183 184
 14 15 16 33 38 39 40 41 42 43 44 45 46 47 48 49 50 51 52 53 54 55 56 57 58 61 63 64 65 66 67 70 101 102 103 104 105 106 107 108 112 113 118 119 120 129 131 133 134 135 137 138 143 144 145 146 147 148 149 154 155 156 157 158 164 165 166 183 184
 15 16 33 38 39 40 41 42 43 44 45 46 47 48 49 50 51 52 53 54 55 56 57 58 59 61 63 64 65 66 67 70 101 102 103 104 105 106 107 108 112 113 118 119 120 129 131 133 134 135 137 138 143 144 145 146 147 148 149 154 155 156 157 158 164 165 166 183 184
 16 33 46 47 48 49 50 51 52 53 54 61 63 64 65 66 67 70 101 102 103 104 105 106 107 108 112 113 118 119 120 129 131 133 134 135 137 138 143 144 145 146 147 148 149 154 155 156 157 158 164 165 166 183 184
 33 38 39 40 41 42 43 44 46 47 48 49 50 51 52 53 54 61 63 64 65 66 67 70 101 102 103 104 105 106 107 108 112 113 118 119 120 129 131 133 134 135 137 138 143 144 145 146 147 148 149 154 155 156 157 158 164 165 166 170 171 172 173 174 175 176 183 184
 18 19 20 21 22 23 24 25 26 27 28 29 30 31 32 33 34 35 36 37 38 39 40 41 42 43 44 45 46 47 48 49 50 51 52 53 54 55 56 57 58 59 60 61 62 63 64 65 66 67 68 69 70 71 72 73 74 75 76 77 78 79 80 81 82 83 84 85 86 87 88 89 90 91 92 93 94 95 96 97 99 100 101 102 103 104 105 106 107 108 110 111 112 113 114 115 116 117 118 119 120 121 122 123 124 125 128 129 130 131 132 133 134 135 136 137 138 140 143 144 145 146 147 148 149 151 154 155 156 157 158 160 162 163 164 165 166 167 168 169 170 171 172 173 174 175 176 177 178 179 180 183 184 186 187 188
 19 20 21 22 23 24 25 26 27 28 29 30 31 32 34 35 36 37 38 39 40 41 42 43 44 45 55 56 57 58 59 60 62 68 69 71 72 73 74 75 76 77 78 79 80 81 82 83 84 85 86 87 88 89 90 91 92 93 94 95 96 97 99 100 110 111 114 115 116 117 121 122 123 124 125 128 130 132 136 140 151 160 162 163 167 168 169 170 171 172 173 174 175 176 177 178 179 180 186 187 188
 20 21 22 23 24 25 26 27 28 29 30 31 32 34 35 36 37 38 39 40 41 42 43 44 45 46 55 56 57 58 59 60 62 68 69 71 72 73 74 75 76 77 78 79 80 81 82 83 84 85 86 87 88 89 90 91 92 93 94 95 96 97 99 100 110 111 114 115 116 117 121 122 123 124 125 128 130 132 136 140 151 160 162 163 164 167 168 169 170 171 172 173 174 175 176 177 178 179 180 186 187 188
 21 22 23 24 25 26 27 28 29 30 31 32 34 35 36 37 38 39 40 41 42 43 44 45 46 47 55 56 57 58 59 60 62 68 69 71 72 73 74 75 76 77 78 79 80 81 82 83 84 85 86 87 88 89 90 91 92 93 94 95 96 97 99 100 110 111 114 115 116 117 121 122 123 124 125 128 130 132 136 140 151 160 162 163 164 165 167 168 169 170 171 172 173 174 175 176 177 178 179 180 186 187 188
 22 23 24 25 26 27 28 29 30 31 32 34 35 36 37 38 39 40 41 42 43 44 45 46 47 48 55 56 57 58 59 60 62 68 69 71 72 73 74 75 76 77 78 79 80 81 82 83 84 85 86 87 88 89 90 91 92 93 94 95 96 97 99 100 110 111 114 115 116 117 121 122 123 124 125 128 130 132 136 140 151 160 162 163 164 165 166 167 168 169 170 171 172 173 174 175 176 177 178 179 180 186 187 188
 23 24 25 26 27 28 29 30 31 32 34 35 36 37 38 39 40 41 42 43 44 45 46 47 48 49 55 56 57 58 59 60 62 68 69 71 72 73 74 75 76 77 78 79 80 81 82 83 84 85 86 87 88 89 90 91 92 93 94 95 96 97 99 100 110 111 114 115 116 117 121 122 123 124 125 128 130 132 136 140 151 160 162 163 164 165 166 167 168 169 170 171 172 173 174 175 176 177 178 179 180 186 187 188
 24 25 26 27 28 29 30 31 32 34 35 36 37 38 39 40 41 42 43 44 45 46 47 48 49 50 55 56 57 58 59 60 62 68 69 71 72 73 74 75 76 77 78 79 80 81 82 83 84 85 86 87 88 89 90 91 92 93 94 95 96 97 99 100 110 111 114 115 116 117 121 122 123 124 125 128 130 132 136 140 151 160 162 163 164 165 166 167 168 169 170 171 172 173 174 175 176 177 178 179 180 186 187 188
 25 26 27 28 29 30 31 32 34 35 36 37 38 39 40 41 42 43 44 45 46 47 48 49 50 51 55 56 57 58 59 60 62 68 69 71 72 73 74 75 76 77 78 79 80 81 82 83 84 85 86 87 88 89 90 91 92 93 94 95 96 97 99 100 110 111 114 115 116 117 121 122 123 124 125 128 130 132 136 140 151 160 162 163 164 165 166 167 168 169 170 171 172 173 174 175 176 177 178 179 180 186 187 188
 26 27 28 29 30 31 32 34 35 36 37 38 39 40 41 42 43 44 45 46 47 48 49 50 51 52 55 56 57 58 59 60 62 68 69 71 72 73 74 75 76 77 78 79 80 81 82 83 84 85 86 87 88 89 90 91 92 93 94 95 96 97 99 100 110 111 114 115 116 117 121 122 123 124 125 128 130 132 136 140 151 160 162 163 164 165 166 167 168 169 170 171 172 173 174 175 176 177 178 179 180 186 187 188
 27 28 29 30 31 32 34 35 36 37 38 39 40 41 42 43 44 45 46 47 48 49 50 51 52 53 55 56 57 58 59 60 62 68 69 71 72 73 74 75 76 77 78 79 80 81 82 83 84 85 86 87 88 89 90 91 92 93 94 95 96 97 99 100 110 111 114 115 116 117 121 122 123 124 125 128 130 132 136 140 151 160 162 163 164 165 166 167 168 169 170 171 172 173 174 175 176 177 178 179 180 186 187 188
 28 29 30 31 32 34 35 36 37 38 39 40 41 42 43 44 45 55 56 57 58 59 60 62 68 69 71 72 73 74 75 76 77 78 79 80 81 82 83 84 85 86 87 88 89 90 91 92 93 94 95 96 97 99 100 110 111 114 115 116 117 121 122 123 124 125 128 130 132 136 140 151 160 162 163 167 168 169 170 171 172 173 174 175 176 177 178 179 180 186 187 188
 29 30 31 32 34 35 36 37 38 39 40 41 42 43 44 45 55 56 57 58 59 60 62 68 69 71 72 73 74 75 76 77 78 79 80 81 82 83 84 85 86 87 88 89 90 91 92 93 94 95 96 97 99 100 110 111 114 115 116 117 121 122 123 124 125 128 130 132 136 140 151 160 162 163 167 168 169 170 171 172 173 174 175 176 177 178 179 180 186 187 188
 30 31 32 34 35 36 37 38 39 40 41 42 43 44 45 55 56 57 58 59 60 62 68 69 71 72 73 74 75 76 77 78 79 80 81 82 83 84 85 86 87 88 89 90 91 92 93 94 95 96 97 99 100 110 111 114 115 116 117 121 122 123 124 125 128 130 132 136 140 151 160 162 163 167 168 169 170 171 172 173 174 175 176 177 178 179 180 186 187 188
 31 32 34 35 36 37 38 39 40 41 42 43 44 45 55 56 57 58 59 60 62 68 69 71 72 73 74 75 76 77 78 79 80 81 82 83 84 85 86 87 88 89 90 91 92 93 94 95 96 97 99 100 110 111 114 115 116 117 121 122 123 124 125 128 130 132 136 140 151 160 162 163 167 168 169 170 171 172 173 174 175 176 177 178 179 180 186 187 188
 32 34 35 36 37 38 39 40 41 42 43 44 45 55 56 57 58 59 60 62 68 69 71 72 73 74 75 76 77 78 79 80 81 82 83 84 85 86 87 88 89 90 91 92 93 94 95 96 97 99 100 110 111 114 115 116 117 121 122 123 124 125 128 130 132 136 140 151 160 162 163 167 168 169 170 171 172 173 174 175 176 177 178 179 180 186 187 188
 34 35 36 37 38 39 40 41 42 43 44 45 55 56 57 58 59 60 62 68 69 71 72 73 74 75 76 77 78 79 80 81 82 83 84 85 86 87 88 89 90 91 92 93 94 95 96 97 99 100 110 111 114 115 116 117 121 122 123 124 125 128 130 132 136 140 151 160 162 163 167 168 169 170 171 172 173 174 175 176 177 178 179 180 186 187 188
 49 50 51 52 53 54 61 63 65 66 67 70 108 112
 60 71 83 85 86 89 90 92 93 95 96 128 130 132 136 140
 60 71 83 85 86 89 90 92 93 95 96 160
 60 71 83 85 86 89 90 92 93 95 96 151
 179 180 186











 50 51 52 53 54 61 63 64 65 66 67 70 101 102 103 104 105 106 107 108 112 113 118 119 120 129 131 133 134 135 137 138 143 144 145 146 147 148 149 154 155 156 157 158 164 165 166 183 184
 51 52 53 54 61 63 64 65 66 67 70 101 102 103 104 105 106 107 108 112 113 118 119 120 129 131 133 134 135 137 138 143 144 145 146 147 148 149 154 155 156 157 158 164 165 166 183 184
 52 53 54 61 63 64 65 66 67 70 101 102 103 104 105 106 107 108 112 113 118 119 120 129 131 133 134 135 137 138 143 144 145 146 147 148 149 154 155 156 157 158 164 165 166 183 184
 53 54 61 63 64 65 66 67 70 101 102 103 104 105 106 107 108 112 113 118 119 120 129 131 133 134 135 137 138 143 144 145 146 147 148 149 154 155 156 157 158 164 165 166 183 184
 54 61 63 64 65 66 67 70 101 102 103 104 105 106 107 108 112 113 118 119 120 129 131 133 134 135 137 138 143 144 145 146 147 148 149 154 155 156 157 158 164 165 166 183 184
 61 63 64 65 66 67 70 101 102 103 104 105 106 107 108 112 113 118 119 120 129 131 133 134 135 137 138 143 144 145 146 147 148 149 154 155 156 157 158 164 165 166 183 184





 62 68 69 71 72 73 74 75 76 77 78 79 80 81 82 83 84 85 86 87 88 89 90 91 92 93 94 95 96 97 99 100 110 111 114 115 116 117 121 122 123 124 128 130 132 136 140 151 160
 63 64 65 66 67 70 101 102 103 104 105 106 107 108 112 113 118 119 120 129 131 133 134 135 137 138 143 144 145 146 147 148 149 154 155 156 157 158

 64 65 66 67 70 101 102 103 104 105 106 107 108 112 113 118 119 120 129 131 133 134 135 137 138 143 144 145 146 147 148 149 154 155 156 157 158

 66 67 70 101 102 103 104 105 106 107 108 112 113 118 119 120 129 131 133 134 135 137 138 143 144 145 146 147 148 149 154 155 156 157 158
 67 70 101 102 103 104 105 106 107 108 112 113 118 119 120 129 131 133 134 135 137 138 143 144 145 146 147 148 149 154 155 156 157 158
 70 101 102 103 104 105 106 107 108 112 113 118 119 120 129 131 133 134 135 137 138 143 144 145 146 147 148 149 154 155 156 157 158

 71 72 73 74
 101 102 103 104 105 106 107 108 112 113 118 119 120 129 131 133 134 135 137 138 143 144 145 146 147 148 149 154 155 156 157 158
 72 73 74 75 76 77 78 79 80 81 82 83 84 85 86 87 88 89 90 91 92 93 94 95 96 97 99 100 110 111 114 115 116 117 121 122 123 124 128 130 132 136 140 151 160

 74



 78 79 80 81
 79 80 81 82 83
 80 81 82 83 84
 81 82 83 84 85
 82 83 84 85 86 87
 83 84 85 86 87 88 89
 84 85 86 87 88 89 90 91 92 93 94 95 96 97 99 100 110 111 114 115 116 117 121 122 123 124 128 130 132 136 140 151 160
 85 86
 86 87 88 89 90 91 92 93 94 95 96 97 99 100 110 111 114 115 116 117 121 122 123 124 128 130 132 136 140 151 160
 87 88 89 90 91 92 93 94 95 96 97 99 100 110 111 114 115 116 117 121 122 123 124 128 130 132 136 140 151 160
 88 89 90 91 92
 89 90 91 92 93 94 95
 90 91 92 93 94 95 96 97 99 100 110 111 114 115 116 117 121 122 123 124 128 130 132 136 140 151 160
 91 92 93 94 95 96 97 99 100 110 111 114 115 116 117 121 122 123 124 128 130 132 136 140 151 160

 93 94 95 96 97 99 100 110 111 114 115 116 117 121 122 123 124 128 130 132 136 140 151 160
 94 95 96 97 99 100 110 111 114 115 116 117 121 122 123 124 128 130 132 136 140 151 160

 96 97 99 100 110 111 114 115 116 117 121 122 123 124 128 130 132 136 140 151 160
 97 99 100 110 111 114 115 116 117 121 122 123 124 128 130 132 136 140 151 160


 100








 154 155 156 157 158

 111



 115 116 117
 116 117
 117

 119



 123





 130 132 136
 131 133 134

 133



 137







 144 145 146
 145


 148














 163

 165 166
 166

 168

 170 171 172 173 174 175 176
 171 172 173 174 175 176
 172 173 174 175 176
 173 174 175 176
 174 175 176
 175 176
 176

 178
 179
 180 186
 186








